# set
set V := C1 C2 C3 C4 C5 ;
set F := F6 F7 F8 F6_1 F6_2 F7_1 F7_2 F8_1 F8_2 ;
set D0 := N0;
set Dσ := Nσ;

# param
param Cf := 200;		# ECV fixed cost
param C := 700;		# ECV max load
param Q := 77.75;		# ECV/BSV battery level
param r := 1;		# ECV consumption

param Cr := 100;		# recharging cost
param Ct := 10;		# travel cost
param Cs ;		# battery swap cost
param n := 5;		# number of customers
param g := 10.41;	# recharging rate

param m :=
N0 0
C1 20
C2 10
C3 20
C4 30
C5 20
F6 0
F6_1 0
F6_2 0
F7 0
F7_1 0
F7_2 0
F8 0
F8_1 0
F8_2 0
Nσ 0
;

param e :=
N0 0
C1 918
C2 2052
C3 1295
C4 1202
C5 1016
F6 0
F6_1 0
F6_2 0
F7 0
F7_1 0
F7_2 0
F8 0
F8_1 0
F8_2 0
Nσ 0
;

param l :=
N0 3390
C1 1558
C2 2692
C3 1935
C4 1842
C5 1656
F6 3390
F6_1 3390
F6_2 3390
F7 3390
F7_1 3390
F7_2 3390
F8 3390
F8_1 3390
F8_2 3390
Nσ 3390
;

param s :=
N0 0
C1 90
C2 90
C3 90
C4 90
C5 90
F6 0
F6_1 0
F6_2 0
F7 0
F7_1 0
F7_2 0
F8 0
F8_1 0
F8_2 0
Nσ 0
;

param d : N0 C1 C2 C3 C4 C5 F6 F6_1 F6_2 F7 F7_1 F7_2 F8 F8_1 F8_2 Nσ  :=
N0 0.0000 40.3113 22.8035 45.2769 45.0444 45.1774 0.0000 0.0000 0.0000 37.2022 37.2022 37.2022 42.0595 42.0595 42.0595 0.0000
C1 40.3113 0.0000 29.0689 53.1507 55.1725 59.4643 40.3113 40.3113 40.3113 19.7231 19.7231 19.7231 44.2041 44.2041 44.2041 40.3113
C2 22.8035 29.0689 0.0000 28.4605 29.5466 32.4500 22.8035 22.8035 22.8035 16.4924 16.4924 16.4924 22.0227 22.0227 22.0227 22.8035
C3 45.2769 53.1507 28.4605 0.0000 3.0000 9.0000 45.2769 45.2769 45.2769 33.9706 33.9706 33.9706 9.4340 9.4340 9.4340 45.2769
C4 45.0444 55.1725 29.5466 3.0000 0.0000 6.0000 45.0444 45.0444 45.0444 36.2353 36.2353 36.2353 12.0830 12.0830 12.0830 45.0444
C5 45.1774 59.4643 32.4500 9.0000 6.0000 0.0000 45.1774 45.1774 45.1774 41.0488 41.0488 41.0488 17.7200 17.7200 17.7200 45.1774
F6 0.0000 40.3113 22.8035 45.2769 45.0444 45.1774 0.0000 0.0000 0.0000 37.2022 37.2022 37.2022 42.0595 42.0595 42.0595 0.0000
F6_1 0.0000 40.3113 22.8035 45.2769 45.0444 45.1774 0.0000 0.0000 0.0000 37.2022 37.2022 37.2022 42.0595 42.0595 42.0595 0.0000
F6_2 0.0000 40.3113 22.8035 45.2769 45.0444 45.1774 0.0000 0.0000 0.0000 37.2022 37.2022 37.2022 42.0595 42.0595 42.0595 0.0000
F7 37.2022 19.7231 16.4924 33.9706 36.2353 41.0488 37.2022 37.2022 37.2022 0.0000 0.0000 0.0000 24.7588 24.7588 24.7588 37.2022
F7_1 37.2022 19.7231 16.4924 33.9706 36.2353 41.0488 37.2022 37.2022 37.2022 0.0000 0.0000 0.0000 24.7588 24.7588 24.7588 37.2022
F7_2 37.2022 19.7231 16.4924 33.9706 36.2353 41.0488 37.2022 37.2022 37.2022 0.0000 0.0000 0.0000 24.7588 24.7588 24.7588 37.2022
F8 42.0595 44.2041 22.0227 9.4340 12.0830 17.7200 42.0595 42.0595 42.0595 24.7588 24.7588 24.7588 0.0000 0.0000 0.0000 42.0595
F8_1 42.0595 44.2041 22.0227 9.4340 12.0830 17.7200 42.0595 42.0595 42.0595 24.7588 24.7588 24.7588 0.0000 0.0000 0.0000 42.0595
F8_2 42.0595 44.2041 22.0227 9.4340 12.0830 17.7200 42.0595 42.0595 42.0595 24.7588 24.7588 24.7588 0.0000 0.0000 0.0000 42.0595
Nσ 0.0000 40.3113 22.8035 45.2769 45.0444 45.1774 0.0000 0.0000 0.0000 37.2022 37.2022 37.2022 42.0595 42.0595 42.0595 0.0000
;

param t : N0 C1 C2 C3 C4 C5 F6 F6_1 F6_2 F7 F7_1 F7_2 F8 F8_1 F8_2 Nσ  :=
N0 0.0000 40.3113 22.8035 45.2769 45.0444 45.1774 0.0000 0.0000 0.0000 37.2022 37.2022 37.2022 42.0595 42.0595 42.0595 0.0000
C1 40.3113 0.0000 29.0689 53.1507 55.1725 59.4643 40.3113 40.3113 40.3113 19.7231 19.7231 19.7231 44.2041 44.2041 44.2041 40.3113
C2 22.8035 29.0689 0.0000 28.4605 29.5466 32.4500 22.8035 22.8035 22.8035 16.4924 16.4924 16.4924 22.0227 22.0227 22.0227 22.8035
C3 45.2769 53.1507 28.4605 0.0000 3.0000 9.0000 45.2769 45.2769 45.2769 33.9706 33.9706 33.9706 9.4340 9.4340 9.4340 45.2769
C4 45.0444 55.1725 29.5466 3.0000 0.0000 6.0000 45.0444 45.0444 45.0444 36.2353 36.2353 36.2353 12.0830 12.0830 12.0830 45.0444
C5 45.1774 59.4643 32.4500 9.0000 6.0000 0.0000 45.1774 45.1774 45.1774 41.0488 41.0488 41.0488 17.7200 17.7200 17.7200 45.1774
F6 0.0000 40.3113 22.8035 45.2769 45.0444 45.1774 0.0000 0.0000 0.0000 37.2022 37.2022 37.2022 42.0595 42.0595 42.0595 0.0000
F6_1 0.0000 40.3113 22.8035 45.2769 45.0444 45.1774 0.0000 0.0000 0.0000 37.2022 37.2022 37.2022 42.0595 42.0595 42.0595 0.0000
F6_2 0.0000 40.3113 22.8035 45.2769 45.0444 45.1774 0.0000 0.0000 0.0000 37.2022 37.2022 37.2022 42.0595 42.0595 42.0595 0.0000
F7 37.2022 19.7231 16.4924 33.9706 36.2353 41.0488 37.2022 37.2022 37.2022 0.0000 0.0000 0.0000 24.7588 24.7588 24.7588 37.2022
F7_1 37.2022 19.7231 16.4924 33.9706 36.2353 41.0488 37.2022 37.2022 37.2022 0.0000 0.0000 0.0000 24.7588 24.7588 24.7588 37.2022
F7_2 37.2022 19.7231 16.4924 33.9706 36.2353 41.0488 37.2022 37.2022 37.2022 0.0000 0.0000 0.0000 24.7588 24.7588 24.7588 37.2022
F8 42.0595 44.2041 22.0227 9.4340 12.0830 17.7200 42.0595 42.0595 42.0595 24.7588 24.7588 24.7588 0.0000 0.0000 0.0000 42.0595
F8_1 42.0595 44.2041 22.0227 9.4340 12.0830 17.7200 42.0595 42.0595 42.0595 24.7588 24.7588 24.7588 0.0000 0.0000 0.0000 42.0595
F8_2 42.0595 44.2041 22.0227 9.4340 12.0830 17.7200 42.0595 42.0595 42.0595 24.7588 24.7588 24.7588 0.0000 0.0000 0.0000 42.0595
Nσ 0.0000 40.3113 22.8035 45.2769 45.0444 45.1774 0.0000 0.0000 0.0000 37.2022 37.2022 37.2022 42.0595 42.0595 42.0595 0.0000
;
